NAME : n20w40.001.254.tour
COMMENT : Length = 254
COMMENT : Found by LKH [Keld Helsgaun] Tue May  2 05:18:25 2017
TYPE : TOUR
DIMENSION : 21
TOUR_SECTION
1
6
14
18
7
12
20
9
5
8
2
13
3
10
16
19
17
4
15
11
21
-1
EOF
